Problem:    PLI
Rows:       31
Columns:    30 (30 integer, 30 binary)
Non-zeros:  138
Status:     INTEGER OPTIMAL
Objective:  z = 9 (MINimum)

   No.   Row name        Activity     Lower bound   Upper bound
------ ------------    ------------- ------------- -------------
     1 z                           9                             
     2 Sorvegliato[1]
                                   3             1               
     3 Sorvegliato[2]
                                   1             1               
     4 Sorvegliato[3]
                                   1             1               
     5 Sorvegliato[4]
                                   2             1               
     6 Sorvegliato[5]
                                   1             1               
     7 Sorvegliato[6]
                                   1             1               
     8 Sorvegliato[7]
                                   1             1               
     9 Sorvegliato[8]
                                   1             1               
    10 Sorvegliato[9]
                                   1             1               
    11 Sorvegliato[10]
                                   1             1               
    12 Sorvegliato[11]
                                   1             1               
    13 Sorvegliato[12]
                                   1             1               
    14 Sorvegliato[13]
                                   1             1               
    15 Sorvegliato[14]
                                   1             1               
    16 Sorvegliato[15]
                                   1             1               
    17 Sorvegliato[16]
                                   1             1               
    18 Sorvegliato[17]
                                   1             1               
    19 Sorvegliato[18]
                                   1             1               
    20 Sorvegliato[19]
                                   1             1               
    21 Sorvegliato[20]
                                   1             1               
    22 Sorvegliato[21]
                                   1             1               
    23 Sorvegliato[22]
                                   1             1               
    24 Sorvegliato[23]
                                   1             1               
    25 Sorvegliato[24]
                                   2             1               
    26 Sorvegliato[25]
                                   1             1               
    27 Sorvegliato[26]
                                   1             1               
    28 Sorvegliato[27]
                                   1             1               
    29 Sorvegliato[28]
                                   1             1               
    30 Sorvegliato[29]
                                   1             1               
    31 Sorvegliato[30]
                                   1             1               

   No. Column name       Activity     Lower bound   Upper bound
------ ------------    ------------- ------------- -------------
     1 x[1]         *              0             0             1 
     2 x[2]         *              1             0             1 
     3 x[3]         *              1             0             1 
     4 x[4]         *              1             0             1 
     5 x[5]         *              0             0             1 
     6 x[6]         *              0             0             1 
     7 x[7]         *              0             0             1 
     8 x[8]         *              0             0             1 
     9 x[9]         *              1             0             1 
    10 x[10]        *              0             0             1 
    11 x[11]        *              0             0             1 
    12 x[12]        *              0             0             1 
    13 x[13]        *              0             0             1 
    14 x[14]        *              0             0             1 
    15 x[15]        *              0             0             1 
    16 x[16]        *              0             0             1 
    17 x[17]        *              1             0             1 
    18 x[18]        *              1             0             1 
    19 x[19]        *              0             0             1 
    20 x[20]        *              1             0             1 
    21 x[21]        *              0             0             1 
    22 x[22]        *              0             0             1 
    23 x[23]        *              1             0             1 
    24 x[24]        *              1             0             1 
    25 x[25]        *              0             0             1 
    26 x[26]        *              0             0             1 
    27 x[27]        *              0             0             1 
    28 x[28]        *              0             0             1 
    29 x[29]        *              0             0             1 
    30 x[30]        *              0             0             1 

Integer feasibility conditions:

KKT.PE: max.abs.err = 0.00e+000 on row 0
        max.rel.err = 0.00e+000 on row 0
        High quality

KKT.PB: max.abs.err = 0.00e+000 on row 0
        max.rel.err = 0.00e+000 on row 0
        High quality

End of output
